
  22    4
  10   10   10   10

   0   0   0   0   0   3 2 3 5 
   2  10  10  10  10   3 11 7 4 
   9  10  10  10  10   4 15 11 9 8 
   6  10  10  10  10   2 8 6 
   7  10  10  10  10   2 8 6 
   7  10  10  10  10   3 15 10 9 
   3  10  10  10  10   2 15 8 
   9  10  10  10  10   2 14 10 
   1  10  10  10  10   3 16 14 13 
   5  10  10  10  10   2 13 12 
   3  10  10  10  10   3 20 16 13 
  10  10  10  10  10   3 20 19 16 
  10  10  10  10  10   3 21 19 17 
   9  10  10  10  10   2 20 17 
   8  10  10  10  10   2 19 18 
   8  10  10  10  10   1 17 
   5  10  10  10  10   1 18 
   8  10  10  10  10   1 22
   7  10  10  10  10   1 22
   5  10  10  10  10   1 22
   5  10  10  10  10   1 22
   0   0   0   0   0   0 
